natoms = 3;
nsingle_bonds = 7;
ndouble_bonds = 4;
ntriple_bonds = 2;


unpaired_electron = [0, 0, 0];

% single_bond : Remplissage avec 0 pour les cases non utilisées.
single_bond = [| 0, 0, 0, 0, 0, 0, 0
               | 0, 0, 0, 0, 0, 0, 0
               | 0, 0, 0, 0, 0, 0, 0 |];

% double_bond : Remplissage avec 0 pour les cases non utilisées.
double_bond = [| 4, 0, 0, 0
               | 6, 6, 0, 0
               | 4, 0, 0, 0 |];

% triple_bond : Remplissage avec 0 pour les cases non utilisées.
triple_bond = [| 0, 0
               | 0, 0
               | 0, 0 |];

lone_pair = [2, 0, 2];

ring_size = [| 0, 0, 0
             | 0, 0, 0
             | 0, 0, 0 |];

is_aromatic = [false, false, false];

valence = [6, 4, 6];

periodic = [2, 2, 2];