natoms = 10;
nsingle_bonds = 7;
ndouble_bonds = 4;
ntriple_bonds = 2;

unpaired_electron = [1, 1, 1, 1, 0, 0, 1, 1, 1, 1];
single_bond = [| 4, 0, 0, 0, 0, 0, 0,
                | 4, 0, 0, 0, 0, 0, 0,
                | 4, 0, 0, 0, 0, 0, 0,
                | 4, 0, 0, 0, 0, 0, 0,
                | 4, 4, 0, 0, 0, 0, 0,
                | 4, 4, 0, 0, 0, 0, 0,
                | 4, 0, 0, 0, 0, 0, 0,
                | 4, 0, 0, 0, 0, 0, 0,
                | 4, 0, 0, 0, 0, 0, 0,
                | 4, 0, 0, 0, 0, 0, 0,|];

double_bond = [| 4, 0, 0, 0,
               | 4, 0, 0, 0,
               | 4, 0, 0, 0,
               | 4, 0, 0, 0,
               | 4, 0, 0, 0,
               | 4, 0, 0, 0,
               | 4, 0, 0, 0,
               | 4, 0, 0, 0,
               | 4, 0, 0, 0,
               | 4, 0, 0, 0,|];

triple_bond = [| 0, 0,
               | 0, 0,
               | 0, 0,
               | 0, 0,
               | 0, 0,
               | 0, 0,
               | 0, 0,
               | 0, 0,
               | 0, 0,
               | 0, 0 |];

lone_pair = [0, 0, 0, 0, 0, 0, 0, 0, 0, 0];

ring_size = [| 0, 1, 0,
            | 0, 1, 0,
            | 0, 1, 0,
            | 0, 1, 0,
            | 0, 2, 0,
            | 0, 2, 0,
            | 0, 1, 0,
            | 0, 1, 0,
            | 0, 1, 0,
            | 0, 1, 0|];
is_aromatic = [true, true, true, true, true, true, true, true, true, true];
valence = [4, 4, 4, 4, 4, 4, 4, 4, 4, 4];
periodic = [2, 2, 2, 2, 2, 2, 2, 2, 2, 2];