natoms = 7;
nsingle_bonds = 7;
ndouble_bonds = 4;
ntriple_bonds = 2;


unpaired_electron = [0, 0, 0, 0, 0, 0, 0];

single_bond = [| 5, 0, 0, 0, 0, 0, 0,
               | 4, 4, 0, 0, 0, 0, 0,
               | 5, 5, 0, 0, 0, 0, 0,
               | 0, 0, 0, 0, 0, 0, 0,
               | 4, 4, 0, 0, 0, 0, 0,
               | 5, 6, 0, 0, 0, 0, 0,
               | 4, 0, 0, 0, 0, 0, 0 |];

double_bond = [| 0, 0, 0, 0,
               | 0, 0, 0, 0,
               | 6, 0, 0, 0,
               | 4, 0, 0, 0,
               | 0, 0, 0, 0,
               | 0, 0, 0, 0,
               | 0, 0, 0, 0 |];

triple_bond = [| 0, 0,
               | 0, 0,
               | 0, 0,
               | 0, 0,
               | 0, 0,
               | 0, 0,
               | 0, 0 |];

lone_pair = [0, 1, 0, 2, 1, 0, 2];

ring_size = [| 0, 0, 0,
             | 0, 0, 0,
             | 0, 0, 0,
             | 0, 0, 0,
             | 0, 0, 0,
             | 0, 0, 0,
             | 0, 0, 0 |];

is_aromatic = [false, false, false, false, false, false, false];

valence = [4, 5, 4, 6, 5, 4, 6];

periodic = [2, 2, 2, 3, 2, 2, 2];
